(set-option :produce-models true)
(set-logic QF_UF)
(declare-fun p34() Bool)
(declare-fun p22() Bool)
(declare-fun p44() Bool)
(declare-fun p45() Bool)
(declare-fun p24() Bool)
(declare-fun p39() Bool)
(declare-fun p25() Bool)
(declare-fun p14() Bool)
(declare-fun p42() Bool)
(declare-fun p23() Bool)
(declare-fun p18() Bool)
(declare-fun p0() Bool)
(declare-fun p29() Bool)
(declare-fun p3() Bool)
(declare-fun p43() Bool)
(declare-fun p27() Bool)
(declare-fun p11() Bool)
(declare-fun p33() Bool)
(declare-fun p30() Bool)
(declare-fun p37() Bool)
(declare-fun p47() Bool)
(declare-fun p15() Bool)
(declare-fun p35() Bool)
(declare-fun p5() Bool)
(declare-fun p8() Bool)
(declare-fun p21() Bool)
(declare-fun p28() Bool)
(declare-fun p49() Bool)
(declare-fun p9() Bool)
(declare-fun p48() Bool)
(declare-fun p46() Bool)
(declare-fun p38() Bool)
(declare-fun p17() Bool)
(declare-fun p31() Bool)
(declare-fun p10() Bool)
(declare-fun p41() Bool)
(declare-fun p26() Bool)
(declare-fun p7() Bool)
(declare-fun p6() Bool)
(declare-fun p13() Bool)
(declare-fun p1() Bool)
(declare-fun p40() Bool)
(declare-fun p2() Bool)
(declare-fun p20() Bool)
(declare-fun p36() Bool)
(declare-fun p16() Bool)
(declare-fun p19() Bool)
(declare-fun p12() Bool)
(declare-fun p32() Bool)
(declare-fun p4() Bool)
(assert
(and (or (not p34) (not p22) p44) (or p45 p24 (not p39)) (or (not p25) (not p14) (not p42)) (or (not p23) p45 p18) (or (not p0) (not p29) p3) (or (not p23) p43 p27) (or p22 p11 (not p45)) (or p33 (not p11) p39) (or (not p22) p39 p44) (or (not p18) p30 p18) (or p37 p47 p30) (or p25 (not p15) (not p35)) (or (not p5) p14 (not p8)) (or p18 p21 (not p35)) (or (not p28) (not p49) (not p33)) (or p9 p45 p11) (or (not p8) p48 p14) (or p46 (not p38) (not p25)) (or (not p24) p5 p24) (or p44 p0 (not p43)) (or p27 p17 (not p31)) (or p24 p28 (not p10)) (or p29 (not p15) p29) (or p5 (not p38) p48) (or (not p41) p25 (not p44)) (or p49 (not p31) (not p26)) (or p7 p23 p26) (or p5 (not p29) (not p30)) (or p44 (not p0) (not p15)) (or (not p6) (not p47) (not p28)) (or (not p11) (not p8) (not p47)) (or (not p9) (not p34) p0) (or p27 p33 (not p23)) (or (not p13) (not p37) p1) (or (not p45) p40 p10) (or (not p34) (not p14) (not p45)) (or (not p45) (not p17) (not p2)) (or p25 p46 p6) (or p17 p28 (not p44)) (or p3 p49 (not p24)) (or p24 (not p28) (not p1)) (or p28 p35 (not p7)) (or p24 p17 (not p14)) (or (not p44) p33 p35) (or p18 (not p3) p0) (or p30 (not p44) (not p13)) (or p23 (not p29) p48) (or p48 p13 (not p37)) (or (not p44) p22 (not p28)) (or p9 (not p9) p17) (or p35 p46 (not p35)) (or (not p7) p0 p20) (or p28 p36 (not p48)) (or p8 (not p8) p31) (or p16 (not p49) (not p15)) (or p45 p19 p33) (or (not p1) p0 p31) (or p17 (not p29) p8) (or (not p7) p15 (not p44)) (or p26 p1 p25) (or (not p14) (not p20) (not p48)) (or p27 (not p18) p49) (or (not p15) p41 p23) (or (not p1) p49 (not p11)) (or p23 (not p12) p41) (or p0 p35 (not p39)) (or (not p24) (not p24) (not p21)) (or (not p41) (not p25) (not p11)) (or (not p43) p46 (not p13)) (or (not p18) (not p28) (not p9)) (or (not p46) p8 p6) (or (not p27) (not p48) p34) (or p15 (not p14) p9) (or (not p42) (not p28) p28) (or p47 (not p17) p6) (or p29 p41 (not p38)) (or (not p9) p3 p14) (or (not p11) (not p25) p40) (or (not p24) p13 p5) (or p2 (not p10) p42) (or p26 (not p39) p22) (or p33 p40 (not p30)) (or (not p38) (not p22) p18) (or p44 p20 p25) (or p42 (not p24) (not p16)) (or (not p5) p43 (not p35)) (or p21 (not p10) (not p5)) (or (not p3) p28 (not p33)) (or p7 p15 p39) (or p47 (not p16) p29) (or p20 (not p20) (not p30)) (or (not p32) (not p19) (not p7)) (or p48 (not p30) p49) (or p36 p42 (not p31)) (or p33 (not p4) (not p3)) (or (not p27) (not p27) (not p14)) (or (not p25) (not p22) (not p33)) (or p1 p21 p40) (or (not p10) (not p44) p1) (or (not p17) p34 (not p18)) (or (not p1) (not p4) p23) (or p40 p1 p45) (or p42 p45 p30) (or (not p39) (not p18) (not p20)) (or p36 (not p48) p13) (or (not p19) (not p23) p18) (or p0 p30 (not p5)) (or p17 (not p26) p7) (or p15 p18 p39) (or (not p11) p38 (not p36)) (or p44 (not p11) (not p25)) (or p35 p36 (not p28)) (or (not p5) p41 p12) (or (not p27) p42 p48) (or p36 (not p10) p28) (or p7 p40 (not p21)) (or p31 p37 p24) (or p39 (not p45) p16) (or (not p43) p35 (not p25)) (or p29 (not p31) (not p29)) (or (not p7) p45 p44) (or (not p14) (not p30) p8) (or (not p26) p28 (not p33)) (or p35 (not p45) p35) (or (not p46) (not p28) p36) (or (not p31) p11 p43) (or p36 (not p40) p9) (or p20 (not p0) (not p48)) (or (not p5) p41 p12) (or p13 p47 (not p36)) (or (not p15) (not p6) (not p40)) (or p1 p46 p26) (or p45 p48 p3) (or p6 (not p3) p31) (or p35 (not p3) p6) (or (not p14) p16 (not p22)) (or (not p21) p21 p40) (or (not p15) (not p38) p20) (or p17 p15 p39) (or (not p8) p21 p37) (or (not p29) p40 p15) (or p14 (not p31) (not p17)) (or (not p27) p5 p34) (or p30 p14 (not p26)) (or p32 p21 (not p28)) (or p43 (not p30) (not p6)) (or p39 (not p32) (not p8)) (or p28 (not p24) p17) (or p29 (not p28) p46) (or (not p5) p16 p31) (or p19 p9 (not p49)) (or (not p27) (not p11) p23) (or p47 (not p45) p16) (or p30 (not p38) (not p15)) (or p21 p28 (not p5)) (or p48 (not p42) p7) (or p39 p24 p43) (or (not p38) (not p49) p38) (or p39 p19 (not p15)) (or p34 (not p39) (not p12)) (or (not p32) (not p29) (not p8)) (or p12 (not p8) p40) (or p49 (not p15) p19) (or (not p29) p37 (not p10)) (or p46 p26 (not p35)) (or (not p48) (not p44) (not p30)) (or p20 (not p5) (not p28)) (or p23 (not p30) (not p38)) (or (not p40) (not p10) p0) (or (not p27) (not p47) p48) (or (not p40) p46 p13) (or p48 p48 (not p32)) (or p22 (not p27) p41) (or p43 (not p7) (not p21)) (or (not p2) (not p40) (not p31)) (or p39 (not p0) p45) (or (not p1) (not p3) p19) (or p21 (not p26) p14) (or (not p9) (not p16) p11) (or (not p0) (not p37) (not p38)) (or (not p47) p13 (not p27)) (or (not p43) (not p49) p27) (or (not p30) p9 (not p44)) (or (not p39) (not p36) (not p35)) (or p16 p11 (not p8)) (or p9 p47 p36) (or p33 p29 (not p5)) (or (not p48) p13 p23) (or (not p15) p31 (not p30)) (or (not p40) (not p49) p34) (or (not p17) p17 (not p42)) (or (not p15) p35 (not p9)) (or p39 (not p19) p49) (or p41 (not p23) p13) (or p30 p46 p8) (or p3 p5 p6) (or p44 p13 p39) (or p0 (not p33) p36) (or (not p35) p49 p42) (or p34 p7 (not p41)) (or p7 p25 p49) (or p39 p43 p42) (or (not p29) p33 p36) (or p48 (not p14) p11) (or p1 p36 (not p33)) (or p12 p0 (not p0)) (or (not p35) p1 p40) (or p7 (not p38) (not p39)) (or (not p18) p24 p4) (or p42 p29 p38))
)
(check-sat)
(get-model)
